  6	39
 16
  0	 15	  1	 54	 11	 40	 50	 31	  7	 70	 46	 36	 22	 75	 61	 79	
 14
  0	  4	 26	 65	  8	 43	  5	 16	 44	 34	 55	 73	 47	 79	
 14
  0	 10	 35	 49	  3	 74	 39	 78	 18	 25	 42	 64	 57	 79	
 18
  0	 32	 19	 30	 71	 29	 37	 58	 69	 14	 76	 12	 53	  2	 68	 51	 41	 79	
 12
  0	 24	  6	 21	 63	 17	 23	 45	 60	 56	 62	 79	
 16
  0	 20	 28	  9	 67	 27	 59	 33	 48	 72	 13	 66	 38	 52	 77	 79	
